NAME : rand100.8223916.tour
COMMENT : Length = 8223916
COMMENT : Found by LKH-3 [Keld Helsgaun] Tue Mar 15 22:40:30 2022
TYPE : TOUR
DIMENSION : 104
TOUR_SECTION
1
8
101
18
102
71
68
83
51
90
65
48
30
80
81
91
64
36
57
47
99
53
79
6
94
98
66
88
84
31
16
45
52
11
61
5
22
41
34
7
42
24
25
43
40
55
96
39
100
44
29
35
23
2
89
58
76
59
95
77
93
28
37
19
56
46
50
73
54
38
70
72
17
92
27
10
33
3
78
20
74
26
9
32
4
12
14
85
82
75
21
49
13
67
97
86
63
15
87
62
103
69
104
60
-1
EOF
